proyfinal/src/viki/013/experimentInOfficeAgust.take6.output/ef12fa8e-c892-48f2-9032-d0af2adf2d73.als.out
Reading from standard input... Use '--help' for help.
============================[ Problem Statistics ]=============================
|                                                                             |
|  Number of variables:         87638                                         |
|  Number of clauses:          161767                                         |
|  Parse time:                   0.03 s                                       |
|                                                                             |
============================[ Search Statistics ]==============================
| Conflicts |          ORIGINAL         |          LEARNT          | Progress |
|           |    Vars  Clauses Literals |    Limit  Clauses Lit/Cl |          |
===============================================================================
|       100 |   61950   103617   258905 |    37992      100     11 | 29.311 % |
|       250 |   61950   103617   258905 |    41792      250    142 | 29.311 % |
|       475 |   61950   103617   258905 |    45971      475    120 | 29.312 % |
|       812 |   61950   103617   258905 |    50568      812     91 | 29.311 % |
|      1318 |   61950   103617   258905 |    55625     1318     66 | 29.311 % |
|      2077 |   61950   103617   258905 |    61187     2077     79 | 29.312 % |
===============================================================================
restarts              : 15
conflicts             : 3124           (7239 /sec)
decisions             : 12866          (0.00 % random) (29812 /sec)
propagations          : 4871010        (11286511 /sec)
conflict literals     : 225091         (56.44 % deleted)
Memory used           : 23.37 MB
CPU time              : 0.431578 s

UNSATISFIABLE
